\ This file has been generated by DOcplex
\ ENCODING=ISO-8859-1
\Problem name: random_problem.lp

Minimize
 obj: 20 x0 + 10 x1 + 5 x2 - 104 x3 - 52 x4 - 26 x5 + 180 x6 + 90 x7 + 45 x8 + [
      4000 x0^2 + 4000 x0*x1 + 2000 x0*x2 - 256 x0*x3 - 128 x0*x4 - 64 x0*x5
      + 128 x0*x6 + 64 x0*x7 + 32 x0*x8 + 1000 x1^2 + 1000 x1*x2 - 128 x1*x3
      - 64 x1*x4 - 32 x1*x5 + 64 x1*x6 + 32 x1*x7 + 16 x1*x8 + 250 x2^2
      - 64 x2*x3 - 32 x2*x4 - 16 x2*x5 + 32 x2*x6 + 16 x2*x7 + 8 x2*x8
      + 1504 x3^2 + 1504 x3*x4 + 752 x3*x5 + 896 x3*x6 + 448 x3*x7 + 224 x3*x8
      + 376 x4^2 + 376 x4*x5 + 448 x4*x6 + 224 x4*x7 + 112 x4*x8 + 94 x5^2
      + 224 x5*x6 + 112 x5*x7 + 56 x5*x8 + 2656 x6^2 + 2656 x6*x7 + 1328 x6*x8
      + 664 x7^2 + 664 x7*x8 + 166 x8^2 ]/2
Subject To
 c0: 4 x0 + 2 x1 + x2 + 4 x3 + 2 x4 + x5 + 4 x6 + 2 x7 + x8 = 7

Bounds
 0 <= x0 <= 1
 0 <= x1 <= 1
 0 <= x2 <= 1
 0 <= x3 <= 1
 0 <= x4 <= 1
 0 <= x5 <= 1
 0 <= x6 <= 1
 0 <= x7 <= 1
 0 <= x8 <= 1

Binaries
 x0 x1 x2 x3 x4 x5 x6 x7 x8
End
